n = 15
Q1 = [0 0 16 0 45 0 0 0 0 33 0 28 0 0 25; 0 0 0 0 0 0 33 0 0 0 0 34 7 0 0; 0 0 0 0 0 0 0 0 0 0 0 42 23 16 0; 0 0 0 0 0 0 32 0 0 0 0 0 0 15 26; 0 0 0 0 0 0 0 0 16 0 0 0 13 0 0; 0 0 0 0 0 0 0 0 0 0 0 0 0 18 0; 0 0 0 0 0 0 0 0 0 0 0 0 0 20 0; 0 0 0 0 0 0 0 0 0 0 0 0 0 0 0; 0 0 0 0 0 0 0 0 0 0 0 12 0 0 0; 0 0 0 0 0 0 0 0 0 0 18 0 19 17 0; 0 0 0 0 0 0 0 0 0 0 0 0 24 0 0; 0 0 0 0 0 0 0 0 0 0 0 0 29 0 0; 0 0 0 0 0 0 0 0 0 0 0 0 0 0 0; 0 0 0 0 0 0 0 0 0 0 0 0 0 0 0; 0 0 0 0 0 0 0 0 0 0 0 0 0 0 0]
Q2 = [0.0 0.0 39.0 0.0 0.0 0.0 0.0 0.0 0.0 6.0 0.0 14.0 0.0 0.0 10.0; 0.0 0.0 0.0 0.0 0.0 0.0 2.0 0.0 0.0 0.0 0.0 0.0 45.0 0.0 0.0; 0.0 0.0 0.0 0.0 0.0 0.0 0.0 0.0 0.0 0.0 0.0 3.0 10.0 37.0 0.0; 0.0 0.0 0.0 0.0 0.0 0.0 13.0 0.0 0.0 0.0 0.0 0.0 0.0 45.0 12.0; 0.0 0.0 0.0 0.0 0.0 0.0 0.0 0.0 33.0 0.0 0.0 0.0 44.0 0.0 0.0; 0.0 0.0 0.0 0.0 0.0 0.0 0.0 0.0 0.0 0.0 0.0 0.0 0.0 39.0 0.0; 0.0 0.0 0.0 0.0 0.0 0.0 0.0 0.0 0.0 0.0 0.0 0.0 0.0 31.0 0.0; 0.0 0.0 0.0 0.0 0.0 0.0 0.0 0.0 0.0 0.0 0.0 0.0 0.0 0.0 0.0; 0.0 0.0 0.0 0.0 0.0 0.0 0.0 0.0 0.0 0.0 0.0 34.0 0.0 0.0 0.0; 0.0 0.0 0.0 0.0 0.0 0.0 0.0 0.0 0.0 0.0 42.0 0.0 34.0 40.0 0.0; 0.0 0.0 0.0 0.0 0.0 0.0 0.0 0.0 0.0 0.0 0.0 0.0 15.0 0.0 0.0; 0.0 0.0 0.0 0.0 0.0 0.0 0.0 0.0 0.0 0.0 0.0 0.0 6.0 0.0 0.0; 0.0 0.0 0.0 0.0 0.0 0.0 0.0 0.0 0.0 0.0 0.0 0.0 0.0 0.0 0.0; 0.0 0.0 0.0 0.0 0.0 0.0 0.0 0.0 0.0 0.0 0.0 0.0 0.0 0.0 0.0; 0.0 0.0 0.0 0.0 0.0 0.0 0.0 0.0 0.0 0.0 0.0 0.0 0.0 0.0 0.0]
Q3 = [0 60 3 60 1 60 60 60 60 17 60 16 60 60 15; 0 0 60 60 60 60 0 60 60 60 60 21 5 60 60; 0 0 0 60 60 60 60 60 60 60 60 15 27 2 60; 0 0 0 0 60 60 11 60 60 60 60 60 60 0 9; 0 0 0 0 0 60 60 60 8 60 60 60 0 60 60; 0 0 0 0 0 0 60 60 60 60 60 60 60 3 60; 0 0 0 0 0 0 0 60 60 60 60 60 60 1 60; 0 0 0 0 0 0 0 0 60 60 60 60 60 60 60; 0 0 0 0 0 0 0 0 0 60 60 6 60 60 60; 0 0 0 0 0 0 0 0 0 0 0 60 0 2 60; 0 0 0 0 0 0 0 0 0 0 0 60 10 60 60; 0 0 0 0 0 0 0 0 0 0 0 0 3 60 60; 0 0 0 0 0 0 0 0 0 0 0 0 0 60 60; 0 0 0 0 0 0 0 0 0 0 0 0 0 0 60; 0 0 0 0 0 0 0 0 0 0 0 0 0 0 0]
